c description: Perfect Matching Principle on 
c generator: CNFgen (0.9.0)
c copyright: (C) 2012-2020 Massimo Lauria <massimo.lauria@uniroma1.it>
c url: https://massimolauria.net/cnfgen
c
p cnf 80 633
-1 -2 0
-1 -3 0
-1 -4 0
-1 -5 0
-1 -6 0
-1 -7 0
-1 -8 0
-2 -3 0
-2 -4 0
-2 -5 0
-2 -6 0
-2 -7 0
-2 -8 0
-3 -4 0
-3 -5 0
-3 -6 0
-3 -7 0
-3 -8 0
-4 -5 0
-4 -6 0
-4 -7 0
-4 -8 0
-5 -6 0
-5 -7 0
-5 -8 0
-6 -7 0
-6 -8 0
-7 -8 0
1 2 3 4 5 6 7 8 0
-9 -10 0
-9 -11 0
-9 -12 0
-9 -13 0
-9 -14 0
-9 -15 0
-10 -11 0
-10 -12 0
-10 -13 0
-10 -14 0
-10 -15 0
-11 -12 0
-11 -13 0
-11 -14 0
-11 -15 0
-12 -13 0
-12 -14 0
-12 -15 0
-13 -14 0
-13 -15 0
-14 -15 0
9 10 11 12 13 14 15 0
-16 -17 0
-16 -18 0
-16 -19 0
-16 -20 0
-16 -21 0
-16 -22 0
-16 -23 0
-17 -18 0
-17 -19 0
-17 -20 0
-17 -21 0
-17 -22 0
-17 -23 0
-18 -19 0
-18 -20 0
-18 -21 0
-18 -22 0
-18 -23 0
-19 -20 0
-19 -21 0
-19 -22 0
-19 -23 0
-20 -21 0
-20 -22 0
-20 -23 0
-21 -22 0
-21 -23 0
-22 -23 0
16 17 18 19 20 21 22 23 0
-24 -25 0
-24 -26 0
-24 -27 0
-24 -28 0
-24 -29 0
-25 -26 0
-25 -27 0
-25 -28 0
-25 -29 0
-26 -27 0
-26 -28 0
-26 -29 0
-27 -28 0
-27 -29 0
-28 -29 0
24 25 26 27 28 29 0
-1 -30 0
-1 -31 0
-1 -32 0
-1 -33 0
-1 -34 0
-1 -35 0
-1 -36 0
-1 -37 0
-1 -38 0
-1 -39 0
-1 -40 0
-30 -31 0
-30 -32 0
-30 -33 0
-30 -34 0
-30 -35 0
-30 -36 0
-30 -37 0
-30 -38 0
-30 -39 0
-30 -40 0
-31 -32 0
-31 -33 0
-31 -34 0
-31 -35 0
-31 -36 0
-31 -37 0
-31 -38 0
-31 -39 0
-31 -40 0
-32 -33 0
-32 -34 0
-32 -35 0
-32 -36 0
-32 -37 0
-32 -38 0
-32 -39 0
-32 -40 0
-33 -34 0
-33 -35 0
-33 -36 0
-33 -37 0
-33 -38 0
-33 -39 0
-33 -40 0
-34 -35 0
-34 -36 0
-34 -37 0
-34 -38 0
-34 -39 0
-34 -40 0
-35 -36 0
-35 -37 0
-35 -38 0
-35 -39 0
-35 -40 0
-36 -37 0
-36 -38 0
-36 -39 0
-36 -40 0
-37 -38 0
-37 -39 0
-37 -40 0
-38 -39 0
-38 -40 0
-39 -40 0
1 30 31 32 33 34 35 36 37 38 39 40 0
-30 -41 0
-30 -42 0
-30 -43 0
-30 -44 0
-41 -42 0
-41 -43 0
-41 -44 0
-42 -43 0
-42 -44 0
-43 -44 0
30 41 42 43 44 0
-16 -45 0
-16 -46 0
-16 -47 0
-45 -46 0
-45 -47 0
-46 -47 0
16 45 46 47 0
-2 -9 0
-2 -17 0
-2 -41 0
-2 -48 0
-2 -49 0
-2 -50 0
-2 -51 0
-2 -52 0
-9 -17 0
-9 -41 0
-9 -48 0
-9 -49 0
-9 -50 0
-9 -51 0
-9 -52 0
-17 -41 0
-17 -48 0
-17 -49 0
-17 -50 0
-17 -51 0
-17 -52 0
-41 -48 0
-41 -49 0
-41 -50 0
-41 -51 0
-41 -52 0
-48 -49 0
-48 -50 0
-48 -51 0
-48 -52 0
-49 -50 0
-49 -51 0
-49 -52 0
-50 -51 0
-50 -52 0
-51 -52 0
2 9 17 41 48 49 50 51 52 0
-3 -31 0
-3 -42 0
-3 -53 0
-3 -54 0
-3 -55 0
-3 -56 0
-3 -57 0
-3 -58 0
-3 -59 0
-31 -42 0
-31 -53 0
-31 -54 0
-31 -55 0
-31 -56 0
-31 -57 0
-31 -58 0
-31 -59 0
-42 -53 0
-42 -54 0
-42 -55 0
-42 -56 0
-42 -57 0
-42 -58 0
-42 -59 0
-53 -54 0
-53 -55 0
-53 -56 0
-53 -57 0
-53 -58 0
-53 -59 0
-54 -55 0
-54 -56 0
-54 -57 0
-54 -58 0
-54 -59 0
-55 -56 0
-55 -57 0
-55 -58 0
-55 -59 0
-56 -57 0
-56 -58 0
-56 -59 0
-57 -58 0
-57 -59 0
-58 -59 0
3 31 42 53 54 55 56 57 58 59 0
-4 -10 0
-4 -24 0
-4 -32 0
-4 -45 0
-4 -53 0
-4 -60 0
-4 -61 0
-4 -62 0
-10 -24 0
-10 -32 0
-10 -45 0
-10 -53 0
-10 -60 0
-10 -61 0
-10 -62 0
-24 -32 0
-24 -45 0
-24 -53 0
-24 -60 0
-24 -61 0
-24 -62 0
-32 -45 0
-32 -53 0
-32 -60 0
-32 -61 0
-32 -62 0
-45 -53 0
-45 -60 0
-45 -61 0
-45 -62 0
-53 -60 0
-53 -61 0
-53 -62 0
-60 -61 0
-60 -62 0
-61 -62 0
4 10 24 32 45 53 60 61 62 0
-11 -25 0
-11 -33 0
-11 -63 0
-11 -64 0
-11 -65 0
-11 -66 0
-25 -33 0
-25 -63 0
-25 -64 0
-25 -65 0
-25 -66 0
-33 -63 0
-33 -64 0
-33 -65 0
-33 -66 0
-63 -64 0
-63 -65 0
-63 -66 0
-64 -65 0
-64 -66 0
-65 -66 0
11 25 33 63 64 65 66 0
-5 -12 0
-5 -18 0
-5 -26 0
-5 -34 0
-5 -43 0
-5 -54 0
-5 -60 0
-5 -67 0
-12 -18 0
-12 -26 0
-12 -34 0
-12 -43 0
-12 -54 0
-12 -60 0
-12 -67 0
-18 -26 0
-18 -34 0
-18 -43 0
-18 -54 0
-18 -60 0
-18 -67 0
-26 -34 0
-26 -43 0
-26 -54 0
-26 -60 0
-26 -67 0
-34 -43 0
-34 -54 0
-34 -60 0
-34 -67 0
-43 -54 0
-43 -60 0
-43 -67 0
-54 -60 0
-54 -67 0
-60 -67 0
5 12 18 26 34 43 54 60 67 0
-13 -19 0
-13 -35 0
-13 -46 0
-13 -48 0
-13 -55 0
-13 -68 0
-13 -69 0
-13 -70 0
-19 -35 0
-19 -46 0
-19 -48 0
-19 -55 0
-19 -68 0
-19 -69 0
-19 -70 0
-35 -46 0
-35 -48 0
-35 -55 0
-35 -68 0
-35 -69 0
-35 -70 0
-46 -48 0
-46 -55 0
-46 -68 0
-46 -69 0
-46 -70 0
-48 -55 0
-48 -68 0
-48 -69 0
-48 -70 0
-55 -68 0
-55 -69 0
-55 -70 0
-68 -69 0
-68 -70 0
-69 -70 0
13 19 35 46 48 55 68 69 70 0
-49 -63 0
-49 -71 0
-49 -72 0
-63 -71 0
-63 -72 0
-71 -72 0
49 63 71 72 0
-6 -14 0
-6 -20 0
-6 -27 0
-6 -50 0
-6 -61 0
-6 -73 0
-6 -74 0
-14 -20 0
-14 -27 0
-14 -50 0
-14 -61 0
-14 -73 0
-14 -74 0
-20 -27 0
-20 -50 0
-20 -61 0
-20 -73 0
-20 -74 0
-27 -50 0
-27 -61 0
-27 -73 0
-27 -74 0
-50 -61 0
-50 -73 0
-50 -74 0
-61 -73 0
-61 -74 0
-73 -74 0
6 14 20 27 50 61 73 74 0
-21 -36 0
-21 -51 0
-21 -75 0
-21 -76 0
-36 -51 0
-36 -75 0
-36 -76 0
-51 -75 0
-51 -76 0
-75 -76 0
21 36 51 75 76 0
-22 -37 0
-22 -44 0
-22 -56 0
-22 -62 0
-22 -64 0
-22 -67 0
-22 -73 0
-22 -75 0
-22 -77 0
-22 -78 0
-37 -44 0
-37 -56 0
-37 -62 0
-37 -64 0
-37 -67 0
-37 -73 0
-37 -75 0
-37 -77 0
-37 -78 0
-44 -56 0
-44 -62 0
-44 -64 0
-44 -67 0
-44 -73 0
-44 -75 0
-44 -77 0
-44 -78 0
-56 -62 0
-56 -64 0
-56 -67 0
-56 -73 0
-56 -75 0
-56 -77 0
-56 -78 0
-62 -64 0
-62 -67 0
-62 -73 0
-62 -75 0
-62 -77 0
-62 -78 0
-64 -67 0
-64 -73 0
-64 -75 0
-64 -77 0
-64 -78 0
-67 -73 0
-67 -75 0
-67 -77 0
-67 -78 0
-73 -75 0
-73 -77 0
-73 -78 0
-75 -77 0
-75 -78 0
-77 -78 0
22 37 44 56 62 64 67 73 75 77 78 0
-15 -38 0
-15 -47 0
-15 -57 0
-15 -68 0
-15 -71 0
-15 -77 0
-15 -79 0
-38 -47 0
-38 -57 0
-38 -68 0
-38 -71 0
-38 -77 0
-38 -79 0
-47 -57 0
-47 -68 0
-47 -71 0
-47 -77 0
-47 -79 0
-57 -68 0
-57 -71 0
-57 -77 0
-57 -79 0
-68 -71 0
-68 -77 0
-68 -79 0
-71 -77 0
-71 -79 0
-77 -79 0
15 38 47 57 68 71 77 79 0
-7 -28 0
-7 -39 0
-7 -58 0
-7 -65 0
-7 -69 0
-7 -76 0
-7 -79 0
-7 -80 0
-28 -39 0
-28 -58 0
-28 -65 0
-28 -69 0
-28 -76 0
-28 -79 0
-28 -80 0
-39 -58 0
-39 -65 0
-39 -69 0
-39 -76 0
-39 -79 0
-39 -80 0
-58 -65 0
-58 -69 0
-58 -76 0
-58 -79 0
-58 -80 0
-65 -69 0
-65 -76 0
-65 -79 0
-65 -80 0
-69 -76 0
-69 -79 0
-69 -80 0
-76 -79 0
-76 -80 0
-79 -80 0
7 28 39 58 65 69 76 79 80 0
-8 -23 0
-8 -29 0
-8 -40 0
-8 -52 0
-8 -59 0
-8 -66 0
-8 -70 0
-8 -72 0
-8 -74 0
-8 -78 0
-8 -80 0
-23 -29 0
-23 -40 0
-23 -52 0
-23 -59 0
-23 -66 0
-23 -70 0
-23 -72 0
-23 -74 0
-23 -78 0
-23 -80 0
-29 -40 0
-29 -52 0
-29 -59 0
-29 -66 0
-29 -70 0
-29 -72 0
-29 -74 0
-29 -78 0
-29 -80 0
-40 -52 0
-40 -59 0
-40 -66 0
-40 -70 0
-40 -72 0
-40 -74 0
-40 -78 0
-40 -80 0
-52 -59 0
-52 -66 0
-52 -70 0
-52 -72 0
-52 -74 0
-52 -78 0
-52 -80 0
-59 -66 0
-59 -70 0
-59 -72 0
-59 -74 0
-59 -78 0
-59 -80 0
-66 -70 0
-66 -72 0
-66 -74 0
-66 -78 0
-66 -80 0
-70 -72 0
-70 -74 0
-70 -78 0
-70 -80 0
-72 -74 0
-72 -78 0
-72 -80 0
-74 -78 0
-74 -80 0
-78 -80 0
8 23 29 40 52 59 66 70 72 74 78 80 0